nK = 708;
nT = 4;
nI = 7;
L = 35;
TT = 167;
np = 1;
nc = 3;
b = [58, 32, 36, 49, 24, 27, 41];
d = [140, 103, 89, 99, 103, 106, 138];
m = [1.7, 1.1, 2.2, 1.4, 2.1, 2.4, 2.5];
pt = [0.22, 0.28, 0.29, 0.23];
st = [11.22, 12.6, 16.82, 11.04];
arc = {<1, 0, 1, 1, 0, 0, 0, [1, 1, 1, 1]>, <2, 1, 2, 1, 0, 0, 0, [1, 1, 1, 1]>, <3, 2, 3, 1, 0, 0, 0, [1, 1, 1, 1]>, <4, 3, 4, 1, 0, 0, 0, [1, 1, 1, 1]>, <5, 4, 5, 1, 0, 0, 0, [1, 1, 1, 1]>, <6, 5, 6, 1, 0, 0, 0, [1, 1, 1, 1]>, <7, 6, 7, 1, 0, 0, 0, [1, 1, 1, 1]>, <8, 7, 8, 1, 0, 0, 0, [1, 1, 1, 1]>, <9, 8, 9, 1, 0, 0, 0, [1, 1, 1, 1]>, <10, 9, 10, 1, 0, 0, 0, [1, 1, 1, 1]>, <11, 10, 11, 1, 0, 0, 0, [1, 1, 1, 1]>, <12, 11, 12, 1, 0, 0, 0, [1, 1, 1, 1]>, <13, 12, 13, 1, 0, 0, 0, [1, 1, 1, 1]>, <14, 13, 14, 1, 0, 0, 0, [1, 1, 1, 1]>, <15, 14, 15, 1, 0, 0, 0, [1, 1, 1, 1]>, <16, 15, 16, 1, 0, 0, 0, [1, 1, 1, 1]>, <17, 16, 17, 1, 0, 0, 0, [1, 1, 1, 1]>, <18, 17, 18, 1, 0, 0, 0, [1, 1, 1, 1]>, <19, 18, 19, 1, 0, 0, 0, [1, 1, 1, 1]>, <20, 19, 20, 1, 0, 0, 0, [1, 1, 1, 1]>, <21, 20, 21, 1, 0, 0, 0, [1, 1, 1, 1]>, <22, 21, 22, 1, 0, 0, 0, [1, 1, 1, 1]>, <23, 22, 23, 1, 0, 0, 0, [1, 1, 1, 1]>, <24, 23, 24, 1, 0, 0, 0, [1, 1, 1, 1]>, <25, 24, 25, 1, 0, 0, 0, [1, 1, 1, 1]>, <26, 25, 26, 1, 0, 0, 0, [1, 1, 1, 1]>, <27, 26, 27, 1, 0, 0, 0, [1, 1, 1, 1]>, <28, 27, 28, 1, 0, 0, 0, [1, 1, 1, 1]>, <29, 28, 29, 1, 0, 0, 0, [1, 1, 1, 1]>, <30, 29, 30, 1, 0, 0, 0, [1, 1, 1, 1]>, <31, 30, 31, 1, 0, 0, 0, [1, 1, 1, 1]>, <32, 31, 32, 1, 0, 0, 0, [1, 1, 1, 1]>, <33, 32, 33, 1, 0, 0, 0, [1, 1, 1, 1]>, <34, 33, 34, 1, 0, 0, 0, [1, 1, 1, 1]>, <35, 34, 35, 1, 0, 0, 0, [1, 1, 1, 1]>, <36, 3, 17, 14, 1, 0, 1, [0, 1, 1, 0]>, <37, 4, 18, 14, 1, 0, 1, [0, 1, 1, 0]>, <38, 5, 19, 14, 1, 0, 1, [0, 1, 1, 0]>, <39, 6, 20, 14, 1, 0, 1, [0, 1, 1, 0]>, <40, 12, 26, 14, 1, 0, 1, [0, 1, 1, 0]>, <41, 13, 27, 14, 1, 0, 1, [0, 1, 1, 0]>, <42, 14, 28, 14, 1, 0, 1, [0, 1, 1, 0]>, <43, 15, 29, 14, 1, 0, 1, [0, 1, 1, 0]>, <44, 17, 31, 14, 1, 0, 1, [0, 1, 1, 0]>, <45, 18, 32, 14, 1, 0, 1, [0, 1, 1, 0]>, <46, 19, 33, 14, 1, 0, 1, [0, 1, 1, 0]>, <47, 20, 34, 14, 1, 0, 1, [0, 1, 1, 0]>, <48, 21, 35, 14, 1, 0, 1, [0, 1, 1, 0]>, <49, 1, 17, 16, 2, 0, 1, [0, 1, 1, 0]>, <50, 2, 18, 16, 2, 0, 1, [0, 1, 1, 0]>, <51, 3, 19, 16, 2, 0, 1, [0, 1, 1, 0]>, <52, 4, 20, 16, 2, 0, 1, [0, 1, 1, 0]>, <53, 5, 21, 16, 2, 0, 1, [0, 1, 1, 0]>, <54, 6, 22, 16, 2, 0, 1, [0, 1, 1, 0]>, <55, 10, 26, 16, 2, 0, 1, [0, 1, 1, 0]>, <56, 11, 27, 16, 2, 0, 1, [0, 1, 1, 0]>, <57, 12, 28, 16, 2, 0, 1, [0, 1, 1, 0]>, <58, 13, 29, 16, 2, 0, 1, [0, 1, 1, 0]>, <59, 14, 30, 16, 2, 0, 1, [0, 1, 1, 0]>, <60, 15, 31, 16, 2, 0, 1, [0, 1, 1, 0]>, <61, 16, 32, 16, 2, 0, 1, [0, 1, 1, 0]>, <62, 17, 33, 16, 2, 0, 1, [0, 1, 1, 0]>, <63, 18, 34, 16, 2, 0, 1, [0, 1, 1, 0]>, <64, 19, 35, 16, 2, 0, 1, [0, 1, 1, 0]>, <65, 0, 19, 19, 3, 0, 0, [1, 0, 0, 1]>, <66, 1, 20, 19, 3, 0, 0, [1, 0, 0, 1]>, <67, 2, 21, 19, 3, 0, 0, [1, 0, 0, 1]>, <68, 3, 22, 19, 3, 0, 0, [1, 0, 0, 1]>, <69, 4, 23, 19, 3, 0, 0, [1, 0, 0, 1]>, <70, 5, 24, 19, 3, 0, 0, [1, 0, 0, 1]>, <71, 6, 25, 19, 3, 0, 0, [1, 0, 0, 1]>, <72, 7, 26, 19, 3, 0, 0, [1, 0, 0, 1]>, <73, 8, 27, 19, 3, 0, 0, [1, 0, 0, 1]>, <74, 9, 28, 19, 3, 0, 0, [1, 0, 0, 1]>, <75, 10, 29, 19, 3, 0, 0, [1, 0, 0, 1]>, <76, 11, 30, 19, 3, 0, 0, [1, 0, 0, 1]>, <77, 12, 31, 19, 3, 0, 0, [1, 0, 0, 1]>, <78, 13, 32, 19, 3, 0, 0, [1, 0, 0, 1]>, <79, 14, 33, 19, 3, 0, 0, [1, 0, 0, 1]>, <80, 15, 34, 19, 3, 0, 0, [1, 0, 0, 1]>, <81, 16, 35, 19, 3, 0, 0, [1, 0, 0, 1]>, <82, 0, 17, 17, 4, 0, 0, [0, 1, 1, 0]>, <83, 1, 18, 17, 4, 0, 0, [0, 1, 1, 0]>, <84, 2, 19, 17, 4, 0, 0, [0, 1, 1, 0]>, <85, 3, 20, 17, 4, 0, 0, [0, 1, 1, 0]>, <86, 4, 21, 17, 4, 0, 0, [0, 1, 1, 0]>, <87, 5, 22, 17, 4, 0, 0, [0, 1, 1, 0]>, <88, 6, 23, 17, 4, 0, 0, [0, 1, 1, 0]>, <89, 9, 26, 17, 4, 0, 0, [0, 1, 1, 0]>, <90, 10, 27, 17, 4, 0, 0, [0, 1, 1, 0]>, <91, 11, 28, 17, 4, 0, 0, [0, 1, 1, 0]>, <92, 12, 29, 17, 4, 0, 0, [0, 1, 1, 0]>, <93, 13, 30, 17, 4, 0, 0, [0, 1, 1, 0]>, <94, 14, 31, 17, 4, 0, 0, [0, 1, 1, 0]>, <95, 15, 32, 17, 4, 0, 0, [0, 1, 1, 0]>, <96, 16, 33, 17, 4, 0, 0, [0, 1, 1, 0]>, <97, 17, 34, 17, 4, 0, 0, [0, 1, 1, 0]>, <98, 18, 35, 17, 4, 0, 0, [0, 1, 1, 0]>, <99, 0, 17, 17, 5, 0, 0, [1, 0, 0, 1]>, <100, 1, 18, 17, 5, 0, 0, [1, 0, 0, 1]>, <101, 2, 19, 17, 5, 0, 0, [1, 0, 0, 1]>, <102, 3, 20, 17, 5, 0, 0, [1, 0, 0, 1]>, <103, 4, 21, 17, 5, 0, 0, [1, 0, 0, 1]>, <104, 5, 22, 17, 5, 0, 0, [1, 0, 0, 1]>, <105, 6, 23, 17, 5, 0, 0, [1, 0, 0, 1]>, <106, 9, 26, 17, 5, 0, 0, [1, 0, 0, 1]>, <107, 10, 27, 17, 5, 0, 0, [1, 0, 0, 1]>, <108, 11, 28, 17, 5, 0, 0, [1, 0, 0, 1]>, <109, 12, 29, 17, 5, 0, 0, [1, 0, 0, 1]>, <110, 13, 30, 17, 5, 0, 0, [1, 0, 0, 1]>, <111, 14, 31, 17, 5, 0, 0, [1, 0, 0, 1]>, <112, 15, 32, 17, 5, 0, 0, [1, 0, 0, 1]>, <113, 16, 33, 17, 5, 0, 0, [1, 0, 0, 1]>, <114, 17, 34, 17, 5, 0, 0, [1, 0, 0, 1]>, <115, 18, 35, 17, 5, 0, 0, [1, 0, 0, 1]>, <116, 3, 17, 14, 6, 0, 0, [1, 1, 0, 0]>, <117, 4, 18, 14, 6, 0, 0, [1, 1, 0, 0]>, <118, 5, 19, 14, 6, 0, 0, [1, 1, 0, 0]>, <119, 6, 20, 14, 6, 0, 0, [1, 1, 0, 0]>, <120, 12, 26, 14, 6, 0, 0, [1, 1, 0, 0]>, <121, 13, 27, 14, 6, 0, 0, [1, 1, 0, 0]>, <122, 14, 28, 14, 6, 0, 0, [1, 1, 0, 0]>, <123, 15, 29, 14, 6, 0, 0, [1, 1, 0, 0]>, <124, 17, 31, 14, 6, 0, 0, [1, 1, 0, 0]>, <125, 18, 32, 14, 6, 0, 0, [1, 1, 0, 0]>, <126, 19, 33, 14, 6, 0, 0, [1, 1, 0, 0]>, <127, 20, 34, 14, 6, 0, 0, [1, 1, 0, 0]>, <128, 21, 35, 14, 6, 0, 0, [1, 1, 0, 0]>, <129, 1, 17, 16, 7, 0, 1, [1, 0, 0, 1]>, <130, 2, 18, 16, 7, 0, 1, [1, 0, 0, 1]>, <131, 3, 19, 16, 7, 0, 1, [1, 0, 0, 1]>, <132, 4, 20, 16, 7, 0, 1, [1, 0, 0, 1]>, <133, 5, 21, 16, 7, 0, 1, [1, 0, 0, 1]>, <134, 6, 22, 16, 7, 0, 1, [1, 0, 0, 1]>, <135, 10, 26, 16, 7, 0, 1, [1, 0, 0, 1]>, <136, 11, 27, 16, 7, 0, 1, [1, 0, 0, 1]>, <137, 12, 28, 16, 7, 0, 1, [1, 0, 0, 1]>, <138, 13, 29, 16, 7, 0, 1, [1, 0, 0, 1]>, <139, 14, 30, 16, 7, 0, 1, [1, 0, 0, 1]>, <140, 15, 31, 16, 7, 0, 1, [1, 0, 0, 1]>, <141, 16, 32, 16, 7, 0, 1, [1, 0, 0, 1]>, <142, 17, 33, 16, 7, 0, 1, [1, 0, 0, 1]>, <143, 18, 34, 16, 7, 0, 1, [1, 0, 0, 1]>, <144, 19, 35, 16, 7, 0, 1, [1, 0, 0, 1]>};
